c is-sat
p cnf 10 68
-3 10 -7 0
-7 -9 -10 0
-5 -1 -9 0
-6 3 -5 0
-2 -1 10 0
-2 10 1 0
-2 -9 -1 0
-8 6 2 0
-9 5 3 0
-3 -6 10 0
-7 -4 -2 0
-4 1 -9 0
-4 10 -9 0
9 -8 -1 0
-2 -4 -10 0
6 -4 5 0
-8 6 -2 0
-9 -6 2 0
-3 -6 -4 0
-3 -10 9 0
-7 -9 -4 0
-4 -10 -8 0
6 -10 8 0
3 10 2 0
8 -4 -1 0
-2 7 -6 0
-10 -9 -6 0
-9 8 3 0
-5 -7 -6 0
-9 -4 -2 0
9 -3 -6 0
-8 -7 3 0
1 8 7 0
-3 -8 -5 0
9 -10 6 0
-6 -3 9 0
8 -5 3 0
-3 -8 -2 0
-5 -1 -7 0
1 -6 -4 0
5 -2 -9 0
-5 3 -2 0
-2 -7 10 0
-7 -10 -2 0
-4 -8 2 0
-8 2 -3 0
-3 -8 4 0
-1 -6 10 0
-6 -3 2 0
2 8 5 0
6 -8 -5 0
8 -2 1 0
10 -8 -5 0
-8 -6 -2 0
5 -10 -9 0
-1 -9 -2 0
-2 8 -1 0
-8 6 -7 0
-8 -10 -1 0
-9 7 -8 0
-6 -5 -4 0
-7 -3 1 0
-5 -4 -8 0
6 1 -7 0
6 -1 -8 0
-4 9 -3 0
-10 2 -3 0
-1 4 7 0
